1233.77 0
0 115 114 106 107 108 109 120 0
0 73 77 64 78 66 17 18 19 65 130 119 117 131 116 132 0
0 133 70 69 112 125 111 110 122 123 124 126 127 121 128 129 113 81 71 0
0 59 31 93 94 45 39 44 43 40 3 41 42 2 4 5 6 7 8 9 10 12 11 14 88 15 13 16 89 87 86 84 85 83 20 82 118 46 0
0 33 80 68 67 79 63 34 32 134 76 74 0
0 72 60 61 62 54 55 103 56 105 57 58 29 92 90 27 28 30 26 25 21 91 22 24 23 1 75 47 0
0 48 49 50 51 52 53 102 104 101 100 98 97 96 38 95 37 99 36 35 0